<instance format="XCSP3" type="CSP">
  <variables>
    <var id="x0"> 2 9 13 15 </var>
    <var id="x1"> 2 13 15 16 </var>
    <var id="x2"> 2 9 13 15 </var>
    <var id="x3"> 9 17 </var>
    <var id="x4"> 4 8 15 17 </var>
    <var id="x5"> 2 4 8 9 </var>
    <var id="x6"> 2 9 15 </var>
    <var id="x7"> 2 8 17 </var>
    <var id="x8"> 10 11 14 16 </var>
    <var id="x9"> 2 10 14 </var>
    <var id="x10"> 7 10..12 14 16 </var>
    <var id="x11"> 2 5 7 14 </var>
    <var id="x12"> 5 11 12 16 </var>
    <var id="x13"> 2 12 14 16 </var>
    <var id="x14"> 2 5 10 </var>
    <var id="x15"> 2 7 11 </var>
    <var id="x16"> 3 8 10 11 14 </var>
    <var id="x17"> 0 8 11 </var>
    <var id="x18"> 0 3 10 17 </var>
    <var id="x19"> 3 8 14 17 </var>
    <var id="x20"> 0 8 11 </var>
    <var id="x21"> 0 14 </var>
    <var id="x22"> 0 3 10 </var>
    <var id="x23"> 3 10 11 </var>
    <var id="x24"> 3 10 12 15 </var>
    <var id="x25"> 15 </var>
    <var id="x26"> 1 3 </var>
    <var id="x27"> 0 11 12 </var>
    <var id="x28"> 12 17 </var>
    <var id="x29"> 0 1 17 </var>
    <var id="x30"> 0 1 3 11 </var>
    <var id="x31"> 0 1 10 14 15 </var>
    <var id="x32"> 6 7 10 15 </var>
    <var id="x33"> 0 7 10 14 17 </var>
    <var id="x34"> 0 15 </var>
    <var id="x35"> 6 7 14 17 </var>
    <var id="x36"> 0 1 14 15 </var>
    <var id="x37"> 14 17 </var>
    <var id="x38"> 0 1 6 7 14 17 </var>
    <var id="x39"> 3 6 14 </var>
    <var id="x40"> 0 6 14 </var>
    <var id="x41"> 0..2 13 14 </var>
    <var id="x42"> 2 6 7 13 </var>
    <var id="x43"> 3 6 7 14 </var>
    <var id="x44"> 1..3 7 14 </var>
    <var id="x45"> 0 2 7 </var>
    <var id="x46"> 0..2 6 7 14 </var>
    <var id="x47"> 3 6 14 16 </var>
    <var id="x48"> 3 5 6 12 14 15 </var>
    <var id="x49"> 13..15 </var>
    <var id="x50"> 5 6 13 15 16 </var>
    <var id="x51"> 5 13..15 </var>
    <var id="x52"> 3 5 12 13 </var>
    <var id="x53"> 3 6 12 14 15 </var>
    <var id="x54"> 5 12 </var>
    <var id="x55"> 10 14 </var>
    <var id="x56"> 4 14 </var>
    <var id="x57"> 9 10 17 </var>
    <var id="x58"> 7 9 14 17 </var>
    <var id="x59"> 4 14 17 </var>
    <var id="x60"> 2 7 9 </var>
    <var id="x61"> 2 4 9 14 17 </var>
    <var id="x62"> 1 2 4 7 9 </var>
    <var id="x63"> 9 14 16 </var>
    <var id="x64"> 0 12 14..16 </var>
    <var id="x65"> 0 12 14 16 </var>
    <var id="x66"> 0 9 12 </var>
    <var id="x67"> 12 14 15 </var>
    <var id="x68"> 0..2 14 </var>
    <var id="x69"> 0..2 9 </var>
    <var id="x70"> 0..2 9 </var>
    <var id="x71"> 8..11 </var>
    <var id="x72"> 5 7 10 13 </var>
    <var id="x73"> 7 10..12 </var>
    <var id="x74"> 5 7 9 13 </var>
    <var id="x75"> 5 8 11..13 </var>
    <var id="x76"> 9 12 13 </var>
    <var id="x77"> 5 9 10 13 </var>
    <var id="x78"> 7 9 11 </var>
    <var id="x79"> 3 8 9 14 </var>
    <var id="x80"> 14 15 </var>
    <var id="x81"> 1 2 9 14 15 </var>
    <var id="x82"> 5 8 15 </var>
    <var id="x83"> 3 5 9 </var>
    <var id="x84"> 1..3 8 9 14 </var>
    <var id="x85"> 1 2 8 14 </var>
    <var id="x86"> 1..3 5 9 </var>
    <var id="x87"> 14 15 </var>
    <var id="x88"> 0 13 15 16 </var>
    <var id="x89"> 0 9 13 </var>
    <var id="x90"> 9 14 </var>
    <var id="x91"> 4 9 14 </var>
    <var id="x92"> 0 9 14 15 </var>
    <var id="x93"> 0 9 13 </var>
    <var id="x94"> 0 6 11 15 </var>
    <var id="x95"> 0 11 </var>
    <var id="x96"> 0 8 11 15 </var>
    <var id="x97"> 3 6 8 15 </var>
    <var id="x98"> 2 3 8 9 </var>
    <var id="x99"> 0 2 8 9 11 </var>
    <var id="x100"> 0 2 9 15 </var>
    <var id="x101"> 0 2 6 8 </var>
    <var id="x102"> 4 6 12 </var>
    <var id="x103"> 2 9 </var>
    <var id="x104"> 3 5 9 12 </var>
    <var id="x105"> 3 6 7 9 </var>
    <var id="x106"> 2..4 7 9 </var>
    <var id="x107"> 2 5 7 9 12 </var>
    <var id="x108"> 2 4 9 12 </var>
    <var id="x109"> 2 3 5 9 </var>
    <var id="x110"> 5 6 8 10 14 </var>
    <var id="x111"> 5 6 10 </var>
    <var id="x112"> 0 5 9 10 </var>
    <var id="x113"> 6 9 11 14 </var>
    <var id="x114"> 6 8 14 </var>
    <var id="x115"> 8 9 14 </var>
    <var id="x116"> 0 5 9 14 </var>
    <var id="x117"> 9 14 </var>
    <var id="x118"> 5 8 14 </var>
    <var id="x119"> 5 7 13 </var>
    <var id="x120"> 0 7 11 14 17 </var>
    <var id="x121"> 5 7 13 14 </var>
    <var id="x122"> 0 5 7 8 11 </var>
    <var id="x123"> 0 5 14 </var>
    <var id="x124"> 13 14 17 </var>
    <var id="x125"> 0 7 11 </var>
    <var id="x126"> 3 6 12 14 </var>
    <var id="x127"> 6 12 14 </var>
    <var id="x128"> 12 14 </var>
    <var id="x129"> 2 9 13 14 </var>
    <var id="x130"> 12 13 </var>
    <var id="x131"> 2 3 9 13 </var>
    <var id="x132"> 2 3 9 </var>
    <var id="x133"> 5 12 </var>
    <var id="x134"> 0 4 12 16 </var>
    <var id="x135"> 0 2 9 </var>
    <var id="x136"> 2 5 7 16 </var>
    <var id="x137"> 0 7 12 16 </var>
    <var id="x138"> 4 12 </var>
    <var id="x139"> 0 2 7 </var>
    <var id="x140"> 0 2 4 7 9 </var>
  </variables>
  <constraints>
    <group>
      <allDifferent> %... </allDifferent>
      <args> x0 x1 x2 x3 x4 x5 x6 x7 </args>
      <args> x8 x9 x10 x11 x12 x13 x14 x15 </args>
      <args> x16 x17 x18 x19 x20 x21 x22 </args>
      <args> x23 x24 x25 x26 x27 x28 x29 x30 </args>
      <args> x31 x32 x33 x34 x35 x36 x37 x38 </args>
      <args> x39 x40 x41 x42 x43 x44 x45 x46 </args>
      <args> x47 x48 x49 x50 x51 x52 x53 x54 </args>
      <args> x55 x56 x57 x58 x59 x60 x61 x62 </args>
      <args> x63 x64 x65 x66 x67 x68 x69 x70 </args>
      <args> x71 x72 x73 x74 x75 x76 x77 x78 </args>
      <args> x79 x80 x81 x82 x83 x84 x85 x86 </args>
      <args> x87 x88 x89 x90 x91 x92 x93 </args>
      <args> x94 x95 x96 x97 x98 x99 x100 x101 </args>
      <args> x102 x103 x104 x105 x106 x107 x108 x109 </args>
      <args> x110 x111 x112 x113 x114 x115 x116 x117 </args>
      <args> x118 x119 x120 x121 x122 x123 x124 x125 </args>
      <args> x126 x127 x128 x129 x130 x131 x132 </args>
      <args> x133 x134 x135 x136 x137 x138 x139 x140 </args>
      <args> x8 x16 x23 x39 x47 x63 x71 x79 </args>
      <args> x24 x48 x55 x87 x110 x118 x126 x133 </args>
      <args> x40 x56 x64 x80 x94 x102 x127 x134 </args>
      <args> x0 x9 x31 x41 x49 x81 x103 x135 </args>
      <args> x1 x32 x42 x50 x72 x111 x119 x136 </args>
      <args> x10 x33 x65 x73 x95 x120 x128 x137 </args>
      <args> x2 x11 x25 x51 x74 x121 x129 </args>
      <args> x12 x17 x34 x75 x82 x88 x96 x130 </args>
      <args> x18 x52 x57 x66 x83 x89 x104 x112 </args>
      <args> x3 x35 x43 x58 x90 x105 x113 </args>
      <args> x4 x19 x53 x59 x67 x97 x114 x138 </args>
      <args> x5 x26 x44 x84 x91 x98 x106 x115 </args>
      <args> x20 x27 x45 x54 x60 x99 x107 x122 </args>
      <args> x6 x21 x36 x92 x100 x116 x123 </args>
      <args> x13 x28 x37 x61 x76 x108 x117 x124 </args>
      <args> x7 x29 x38 x46 x68 x85 x101 x139 </args>
      <args> x14 x22 x69 x77 x86 x93 x109 x131 </args>
      <args> x15 x30 x62 x70 x78 x125 x132 x140 </args>
    </group>
  </constraints>
</instance>

